Maximize
192.0 x0 +384.0 x1 +496.0 x2 +608.0 x3 +720.0 x4 +832.0 x5 
Subject To
192.0 x0 +384.0 x1 +328.0 x2 +272.0 x3 +216.0 x4 +160.0 x5  <= 13
192.0 x0 +384.0 x1 +328.0 x2 +272.0 x3 +216.0 x4 +160.0 x5  >= -1
192.0 x0 +384.0 x1 +328.0 x2 +272.0 x3 +216.0 x4 +160.0 x5  <= 13
192.0 x0 +384.0 x1 +328.0 x2 +272.0 x3 +216.0 x4 +160.0 x5  >= -1
-32.0 x0 -64.0 x1 -64.0 x2 -64.0 x3 -64.0 x4 -64.0 x5  <= 13
-32.0 x0 -64.0 x1 -64.0 x2 -64.0 x3 -64.0 x4 -64.0 x5  >= -1
-32.0 x0 -64.0 x1 -64.0 x2 -64.0 x3 -64.0 x4 -64.0 x5  <= 13
-32.0 x0 -64.0 x1 -64.0 x2 -64.0 x3 -64.0 x4 -64.0 x5  >= -1
0.0 x0 +0.0 x1 -16.0 x2 +0.0 x3 -16.0 x4 +0.0 x5  <= 13
0.0 x0 +0.0 x1 -16.0 x2 +0.0 x3 -16.0 x4 +0.0 x5  >= -1
0.0 x0 +0.0 x1 +16.0 x2 +0.0 x3 +16.0 x4 +0.0 x5  <= 13
0.0 x0 +0.0 x1 +16.0 x2 +0.0 x3 +16.0 x4 +0.0 x5  >= -1
0.0 x0 +0.0 x1 -16.0 x2 -32.0 x3 -48.0 x4 -64.0 x5  <= 13
0.0 x0 +0.0 x1 -16.0 x2 -32.0 x3 -48.0 x4 -64.0 x5  >= -1
0.0 x0 +0.0 x1 +8.0 x2 +0.0 x3 +8.0 x4 +0.0 x5  <= 13
0.0 x0 +0.0 x1 +8.0 x2 +0.0 x3 +8.0 x4 +0.0 x5  >= -1
0.0 x0 +0.0 x1 +8.0 x2 +0.0 x3 +8.0 x4 +0.0 x5  <= 13
0.0 x0 +0.0 x1 +8.0 x2 +0.0 x3 +8.0 x4 +0.0 x5  >= -1
0.0 x0 +0.0 x1 -8.0 x2 +0.0 x3 -8.0 x4 +0.0 x5  <= 13
0.0 x0 +0.0 x1 -8.0 x2 +0.0 x3 -8.0 x4 +0.0 x5  >= -1
0.0 x0 +0.0 x1 -8.0 x2 +0.0 x3 -8.0 x4 +0.0 x5  <= 13
0.0 x0 +0.0 x1 -8.0 x2 +0.0 x3 -8.0 x4 +0.0 x5  >= -1
0.0 x0 +0.0 x1 +8.0 x2 +16.0 x3 +24.0 x4 +32.0 x5  <= 13
0.0 x0 +0.0 x1 +8.0 x2 +16.0 x3 +24.0 x4 +32.0 x5  >= -1
0.0 x0 +0.0 x1 +8.0 x2 +16.0 x3 +24.0 x4 +32.0 x5  <= 13
0.0 x0 +0.0 x1 +8.0 x2 +16.0 x3 +24.0 x4 +32.0 x5  >= -1
0.0 x0 +0.0 x1 +0.0 x2 +0.0 x3 +0.0 x4 +0.0 x5  <= 13
0.0 x0 +0.0 x1 +0.0 x2 +0.0 x3 +0.0 x4 +0.0 x5  >= -1
0.0 x0 +0.0 x1 +0.0 x2 +0.0 x3 +0.0 x4 +0.0 x5  <= 13
0.0 x0 +0.0 x1 +0.0 x2 +0.0 x3 +0.0 x4 +0.0 x5  >= -1
x6 - x7 = 0
x8 - x12 = 0
x9 - x13 = 0
x10 - x14 = 0
x11 - x15 = 0
End
